J = 5;
K = 5;
E = [50, 48, 25, 41, 53];
A = [1.0, 0.8, 1.5, 0.9, 1.1];
G = [0, 0, 0, 0, 0];
F = [35, 31, 26, 29, 38];
V = [0.1, 0.125, 0.15, 0.115, 0.165];
piso = [60, 90, 55, 30, 75];
techo = [380, 270, 180, 300, 450];
Sup = [280, 200, 150, 190, 330];
Inf = [300, 150, 100, 250, 300];
P = [0, 0, 0, 0, 0];
D = [350, 500, 400, 350, 600];
R = [25, 60, 55, 65, 80];
